Using license file /home/benedond/gurobi.lic
Using gurobi.env file
Set parameter Threads to value 1
Academic license - for non-commercial use only
Changed value of parameter TimeLimit to 300.0
   Prev: inf  Min: 0.0  Max: inf  Default: inf
Gurobi Optimizer version 9.0.1 build v9.0.1rc0 (linux64)
Optimize a model with 880 rows, 820 columns and 3258 nonzeros
Model fingerprint: 0x79a4b63c
Variable types: 20 continuous, 800 integer (800 binary)
Coefficient statistics:
  Matrix range     [1e+00, 4e+02]
  Objective range  [5e+01, 4e+02]
  Bounds range     [1e+00, 1e+00]
  RHS range        [1e+00, 8e+02]
Presolve removed 534 rows and 514 columns
Presolve time: 0.18s
Presolved: 346 rows, 306 columns, 1192 nonzeros
Variable types: 15 continuous, 291 integer (291 binary)

Root relaxation: objective 8.760000e+02, 196 iterations, 0.00 seconds

    Nodes    |    Current Node    |     Objective Bounds      |     Work
 Expl Unexpl |  Obj  Depth IntInf | Incumbent    BestBd   Gap | It/Node Time

     0     0  876.00000    0   30          -  876.00000      -     -    0s
H    0     0                    2297.0000000  876.00000  61.9%     -    0s
H    0     0                    1950.0000000  876.00000  55.1%     -    0s
     0     0  876.00000    0   46 1950.00000  876.00000  55.1%     -    0s
     0     0  876.00000    0   36 1950.00000  876.00000  55.1%     -    0s
     0     0  961.69611    0   46 1950.00000  961.69611  50.7%     -    0s
     0     0  981.95344    0   48 1950.00000  981.95344  49.6%     -    0s
     0     0  984.37619    0   47 1950.00000  984.37619  49.5%     -    0s
     0     0  986.06506    0   47 1950.00000  986.06506  49.4%     -    0s
     0     0  986.37619    0   48 1950.00000  986.37619  49.4%     -    0s
     0     0  986.43771    0   48 1950.00000  986.43771  49.4%     -    0s
     0     0 1039.63432    0   50 1950.00000 1039.63432  46.7%     -    0s
H    0     0                    1902.0000000 1039.63432  45.3%     -    0s
     0     0 1053.52331    0   51 1902.00000 1053.52331  44.6%     -    0s
     0     0 1054.55385    0   54 1902.00000 1054.55385  44.6%     -    0s
     0     0 1055.00216    0   53 1902.00000 1055.00216  44.5%     -    0s
     0     0 1055.01909    0   53 1902.00000 1055.01909  44.5%     -    0s
     0     0 1062.89564    0   53 1902.00000 1062.89564  44.1%     -    0s
H    0     0                    1784.0000000 1062.89564  40.4%     -    0s
     0     0 1063.88742    0   52 1784.00000 1063.88742  40.4%     -    0s
     0     0 1064.15425    0   52 1784.00000 1064.15425  40.4%     -    0s
     0     0 1064.15425    0   56 1784.00000 1064.15425  40.4%     -    0s
     0     0 1066.76337    0   50 1784.00000 1066.76337  40.2%     -    0s
     0     0 1067.02084    0   50 1784.00000 1067.02084  40.2%     -    0s
     0     0 1067.04550    0   52 1784.00000 1067.04550  40.2%     -    0s
     0     0 1067.81366    0   52 1784.00000 1067.81366  40.1%     -    0s
     0     0 1067.96805    0   52 1784.00000 1067.96805  40.1%     -    0s
     0     0 1068.07971    0   52 1784.00000 1068.07971  40.1%     -    0s
     0     0 1068.08405    0   52 1784.00000 1068.08405  40.1%     -    0s
     0     0 1068.08405    0   52 1784.00000 1068.08405  40.1%     -    0s
H    0     0                    1769.0000000 1068.08405  39.6%     -    0s
H    0     0                    1752.0000000 1096.67415  37.4%     -    0s
     0     2 1096.67415    0   51 1752.00000 1096.67415  37.4%     -    0s
H    9     7                    1743.0000000 1096.67415  37.1%  32.6    0s
H   27    20                    1675.0000000 1096.67415  34.5%  26.6    0s
H   81    59                    1647.0000000 1101.36366  33.1%  18.5    0s
H  164    83                    1602.0000000 1179.38776  26.4%  16.0    0s
*  214   105              48    1594.0000000 1179.90124  26.0%  15.5    0s
*  363    98              21    1539.0000000 1270.63661  17.4%  14.6    0s

Cutting planes:
  Gomory: 5
  Cover: 40
  Clique: 19
  MIR: 56
  GUB cover: 2
  RLT: 2
  Relax-and-lift: 36

Explored 832 nodes (11749 simplex iterations) in 0.83 seconds
Thread count was 1 (of 4 available processors)

Solution count 10: 1539 1594 1602 ... 1902

Optimal solution found (tolerance 1.00e-04)
Best objective 1.539000000000e+03, best bound 1.539000000000e+03, gap 0.0000%
